106
150
120	4
119	14
118	6
117	4
116	6
115	1
114	6
113	4
112	3
111	6
110	6
109	6
108	5
107	4
106	7
105	6
104	7
103	5
102	6
101	5
100	5
99	6
98	2
97	5
96	5
95	6
94	7
93	8
92	7
91	8
90	4
89	3
88	4
87	4
86	11
85	2
84	4
83	7
82	2
81	4
80	4
79	3
78	1
77	4
76	7
75	6
74	4
73	5
72	3
71	6
70	3
69	3
68	1
67	6
66	2
65	2
64	7
63	7
62	3
61	5
60	2
59	3
58	7
57	4
56	6
55	7
54	2
53	4
52	9
51	2
50	3
49	4
48	3
47	4
46	4
45	5
44	5
43	4
42	1
41	6
40	2
39	5
38	9
37	4
36	6
35	3
34	1
33	5
32	4
31	5
30	1
29	2
28	6
27	6
26	5
25	4
24	7
23	6
22	6
21	5
20	4
19	5
18	4
17	4
16	6
15	3
